solution status: optimal solution found
objective value:                              3428000
cpmy_20                                             1 	(obj:-200)
cpmy_24                                             1 	(obj:-200)
cpmy_31                                             1 	(obj:-200)
cpmy_34                                             1 	(obj:-200)
cpmy_56                                             1 	(obj:-200)
cpmy_63                                             1 	(obj:-200)
cpmy_67                                             1 	(obj:-200)
cpmy_70                                             1 	(obj:-200)
cpmy_92                                             1 	(obj:-200)
cpmy_99                                             1 	(obj:-200)
cpmy_103                                            1 	(obj:-200)
cpmy_106                                            1 	(obj:-200)
cpmy_128                                            1 	(obj:-200)
cpmy_135                                            1 	(obj:-200)
cpmy_139                                            1 	(obj:-200)
cpmy_144                                            1 	(obj:-200)
cpmy_164                                            1 	(obj:-200)
cpmy_168                                            1 	(obj:-200)
cpmy_175                                            1 	(obj:-200)
cpmy_178                                            1 	(obj:-200)
cpmy_200                                            1 	(obj:-200)
cpmy_204                                            1 	(obj:-200)
cpmy_211                                            1 	(obj:-200)
cpmy_214                                            1 	(obj:-200)
cpmy_236                                            1 	(obj:-200)
cpmy_243                                            1 	(obj:-200)
cpmy_247                                            1 	(obj:-200)
cpmy_250                                            1 	(obj:-200)
cpmy_272                                            1 	(obj:-200)
cpmy_276                                            1 	(obj:-200)
cpmy_283                                            1 	(obj:-200)
cpmy_288                                            1 	(obj:-200)
cpmy_308                                            1 	(obj:-200)
cpmy_312                                            1 	(obj:-200)
cpmy_319                                            1 	(obj:-200)
cpmy_322                                            1 	(obj:-200)
cpmy_344                                            1 	(obj:-200)
cpmy_351                                            1 	(obj:-200)
cpmy_355                                            1 	(obj:-200)
cpmy_358                                            1 	(obj:-200)
cpmy_380                                            1 	(obj:-200)
cpmy_387                                            1 	(obj:-200)
cpmy_391                                            1 	(obj:-200)
cpmy_394                                            1 	(obj:-200)
cpmy_416                                            1 	(obj:-200)
cpmy_420                                            1 	(obj:-200)
cpmy_427                                            1 	(obj:-200)
cpmy_432                                            1 	(obj:-200)
cpmy_452                                            1 	(obj:-200)
cpmy_456                                            1 	(obj:-200)
cpmy_463                                            1 	(obj:-200)
cpmy_466                                            1 	(obj:-200)
cpmy_488                                            1 	(obj:-200)
cpmy_495                                            1 	(obj:-200)
cpmy_499                                            1 	(obj:-200)
cpmy_502                                            1 	(obj:-200)
cpmy_524                                            1 	(obj:-200)
cpmy_528                                            1 	(obj:-200)
cpmy_535                                            1 	(obj:-200)
cpmy_538                                            1 	(obj:-200)
cpmy_560                                            1 	(obj:-200)
cpmy_564                                            1 	(obj:-200)
cpmy_571                                            1 	(obj:-200)
cpmy_576                                            1 	(obj:-200)
cpmy_596                                            1 	(obj:-200)
cpmy_603                                            1 	(obj:-200)
cpmy_607                                            1 	(obj:-200)
cpmy_610                                            1 	(obj:-200)
cpmy_632                                            1 	(obj:-200)
cpmy_639                                            1 	(obj:-200)
cpmy_643                                            1 	(obj:-200)
cpmy_646                                            1 	(obj:-200)
cpmy_668                                            1 	(obj:-200)
cpmy_675                                            1 	(obj:-200)
cpmy_679                                            1 	(obj:-200)
cpmy_682                                            1 	(obj:-200)
cpmy_704                                            1 	(obj:-200)
cpmy_711                                            1 	(obj:-200)
cpmy_715                                            1 	(obj:-200)
cpmy_720                                            1 	(obj:-200)
cpmy_740                                            1 	(obj:-200)
cpmy_747                                            1 	(obj:-200)
cpmy_751                                            1 	(obj:-200)
cpmy_754                                            1 	(obj:-200)
cpmy_776                                            1 	(obj:-200)
cpmy_780                                            1 	(obj:-200)
cpmy_787                                            1 	(obj:-200)
cpmy_790                                            1 	(obj:-200)
cpmy_812                                            1 	(obj:-200)
cpmy_819                                            1 	(obj:-200)
cpmy_823                                            1 	(obj:-200)
cpmy_826                                            1 	(obj:-200)
cpmy_848                                            1 	(obj:-200)
cpmy_855                                            1 	(obj:-200)
cpmy_859                                            1 	(obj:-200)
cpmy_864                                            1 	(obj:-200)
cpmy_884                                            1 	(obj:-200)
cpmy_891                                            1 	(obj:-200)
cpmy_895                                            1 	(obj:-200)
cpmy_898                                            1 	(obj:-200)
cpmy_920                                            1 	(obj:-200)
cpmy_927                                            1 	(obj:-200)
cpmy_931                                            1 	(obj:-200)
cpmy_934                                            1 	(obj:-200)
cpmy_956                                            1 	(obj:-200)
cpmy_963                                            1 	(obj:-200)
cpmy_967                                            1 	(obj:-200)
cpmy_970                                            1 	(obj:-200)
cpmy_992                                            1 	(obj:-200)
cpmy_996                                            1 	(obj:-200)
cpmy_1003                                           1 	(obj:-200)
cpmy_1008                                           1 	(obj:-200)
cpmy_1028                                           1 	(obj:-200)
cpmy_1032                                           1 	(obj:-200)
cpmy_1039                                           1 	(obj:-200)
cpmy_1042                                           1 	(obj:-200)
cpmy_1064                                           1 	(obj:-200)
cpmy_1071                                           1 	(obj:-200)
cpmy_1075                                           1 	(obj:-200)
cpmy_1078                                           1 	(obj:-200)
cpmy_1100                                           1 	(obj:-200)
cpmy_1107                                           1 	(obj:-200)
cpmy_1111                                           1 	(obj:-200)
cpmy_1114                                           1 	(obj:-200)
cpmy_1136                                           1 	(obj:-200)
cpmy_1143                                           1 	(obj:-200)
cpmy_1147                                           1 	(obj:-200)
cpmy_1152                                           1 	(obj:-200)
cpmy_1172                                           1 	(obj:-200)
cpmy_1179                                           1 	(obj:-200)
cpmy_1183                                           1 	(obj:-200)
cpmy_1186                                           1 	(obj:-200)
cpmy_1208                                           1 	(obj:-200)
cpmy_1212                                           1 	(obj:-200)
cpmy_1219                                           1 	(obj:-200)
cpmy_1222                                           1 	(obj:-200)
cpmy_1244                                           1 	(obj:-200)
cpmy_1251                                           1 	(obj:-200)
cpmy_1255                                           1 	(obj:-200)
cpmy_1258                                           1 	(obj:-200)
cpmy_1280                                           1 	(obj:-200)
cpmy_1284                                           1 	(obj:-200)
cpmy_1291                                           1 	(obj:-200)
cpmy_1296                                           1 	(obj:-200)
cpmy_1316                                           1 	(obj:-200)
cpmy_1323                                           1 	(obj:-200)
cpmy_1327                                           1 	(obj:-200)
cpmy_1330                                           1 	(obj:-200)
cpmy_1352                                           1 	(obj:-200)
cpmy_1359                                           1 	(obj:-200)
cpmy_1363                                           1 	(obj:-200)
cpmy_1366                                           1 	(obj:-200)
cpmy_1388                                           1 	(obj:-200)
cpmy_1392                                           1 	(obj:-200)
cpmy_1399                                           1 	(obj:-200)
cpmy_1402                                           1 	(obj:-200)
cpmy_1424                                           1 	(obj:-200)
cpmy_1428                                           1 	(obj:-200)
cpmy_1435                                           1 	(obj:-200)
cpmy_1440                                           1 	(obj:-200)
uf_1                                                1 	(obj:0)
uf_2                                                1 	(obj:0)
uf_3                                                1 	(obj:0)
uf_4                                                1 	(obj:0)
uf_5                                                1 	(obj:0)
uf_6                                                1 	(obj:0)
uf_7                                                1 	(obj:0)
uf_8                                                1 	(obj:0)
uf_9                                                1 	(obj:0)
uf_10                                               1 	(obj:0)
uf_11                                               1 	(obj:0)
uf_12                                               1 	(obj:0)
uf_13                                               1 	(obj:0)
uf_14                                               1 	(obj:0)
uf_15                                               1 	(obj:0)
uf_16                                               1 	(obj:0)
uf_17                                               1 	(obj:0)
uf_18                                               1 	(obj:0)
uf_19                                               1 	(obj:0)
uf_20                                               1 	(obj:0)
uf_21                                               1 	(obj:0)
uf_22                                               1 	(obj:0)
uf_23                                               1 	(obj:0)
uf_24                                               1 	(obj:0)
uf_25                                               1 	(obj:0)
uf_26                                               1 	(obj:0)
uf_27                                               1 	(obj:0)
uf_28                                               1 	(obj:0)
uf_29                                               1 	(obj:0)
uf_30                                               1 	(obj:0)
uf_31                                               1 	(obj:0)
uf_32                                               1 	(obj:0)
uf_33                                               1 	(obj:0)
uf_34                                               1 	(obj:0)
uf_35                                               1 	(obj:0)
uf_36                                               1 	(obj:0)
uf_37                                               1 	(obj:0)
uf_38                                               1 	(obj:0)
uf_39                                               1 	(obj:0)
uf_40                                               1 	(obj:0)
uf_41                                               1 	(obj:0)
uf_42                                               1 	(obj:0)
uf_43                                               1 	(obj:0)
uf_44                                               1 	(obj:0)
uf_45                                               1 	(obj:0)
uf_46                                               1 	(obj:0)
uf_47                                               1 	(obj:0)
uf_48                                               1 	(obj:0)
uf_49                                               1 	(obj:0)
uf_50                                               1 	(obj:0)
uf_51                                               1 	(obj:0)
uf_52                                               1 	(obj:0)
uf_53                                               1 	(obj:0)
uf_54                                               1 	(obj:0)
uf_55                                               1 	(obj:0)
uf_56                                               1 	(obj:0)
uf_57                                               1 	(obj:0)
uf_58                                               1 	(obj:0)
uf_59                                               1 	(obj:0)
uf_60                                               1 	(obj:0)
uf_61                                               1 	(obj:0)
uf_62                                               1 	(obj:0)
uf_63                                               1 	(obj:0)
uf_64                                               1 	(obj:0)
uf_65                                               1 	(obj:0)
uf_66                                               1 	(obj:0)
uf_67                                               1 	(obj:0)
uf_68                                               1 	(obj:0)
uf_69                                               1 	(obj:0)
uf_70                                               1 	(obj:0)
uf_71                                               1 	(obj:0)
uf_72                                               1 	(obj:0)
uf_73                                               1 	(obj:0)
uf_74                                               1 	(obj:0)
uf_75                                               1 	(obj:0)
uf_76                                               1 	(obj:0)
uf_77                                               1 	(obj:0)
uf_78                                               1 	(obj:0)
uf_79                                               1 	(obj:0)
uf_80                                               1 	(obj:0)
uf_81                                               1 	(obj:0)
uf_82                                               1 	(obj:0)
uf_83                                               1 	(obj:0)
uf_84                                               1 	(obj:0)
uf_85                                               1 	(obj:0)
uf_86                                               1 	(obj:0)
uf_87                                               1 	(obj:0)
uf_88                                               1 	(obj:0)
uf_89                                               1 	(obj:0)
uf_90                                               1 	(obj:0)
uf_91                                               1 	(obj:0)
uf_92                                               1 	(obj:0)
uf_93                                               1 	(obj:0)
uf_94                                               1 	(obj:0)
uf_95                                               1 	(obj:0)
uf_96                                               1 	(obj:0)
uf_97                                               1 	(obj:0)
uf_98                                               1 	(obj:0)
uf_99                                               1 	(obj:0)
uf_100                                              1 	(obj:0)
uf_101                                              1 	(obj:0)
uf_102                                              1 	(obj:0)
uf_103                                              1 	(obj:0)
uf_104                                              1 	(obj:0)
uf_105                                              1 	(obj:0)
uf_106                                              1 	(obj:0)
uf_107                                              1 	(obj:0)
uf_108                                              1 	(obj:0)
uf_109                                              1 	(obj:0)
uf_110                                              1 	(obj:0)
uf_111                                              1 	(obj:0)
uf_112                                              1 	(obj:0)
uf_113                                              1 	(obj:0)
uf_114                                              1 	(obj:0)
uf_115                                              1 	(obj:0)
uf_116                                              1 	(obj:0)
uf_117                                              1 	(obj:0)
uf_118                                              1 	(obj:0)
uf_119                                              1 	(obj:0)
uf_120                                              1 	(obj:0)
uf_121                                              1 	(obj:0)
uf_122                                              1 	(obj:0)
uf_123                                              1 	(obj:0)
uf_124                                              1 	(obj:0)
uf_125                                              1 	(obj:0)
uf_126                                              1 	(obj:0)
uf_127                                              1 	(obj:0)
uf_128                                              1 	(obj:0)
uf_129                                              1 	(obj:0)
uf_130                                              1 	(obj:0)
uf_131                                              1 	(obj:0)
uf_132                                              1 	(obj:0)
uf_133                                              1 	(obj:0)
uf_134                                              1 	(obj:0)
uf_135                                              1 	(obj:0)
uf_136                                              1 	(obj:0)
uf_137                                              1 	(obj:0)
uf_138                                              1 	(obj:0)
uf_139                                              1 	(obj:0)
uf_140                                              1 	(obj:0)
uf_141                                              1 	(obj:0)
uf_142                                              1 	(obj:0)
uf_143                                              1 	(obj:0)
uf_144                                              1 	(obj:0)
uf_145                                              1 	(obj:0)
uf_146                                              1 	(obj:0)
uf_147                                              1 	(obj:0)
uf_148                                              1 	(obj:0)
uf_149                                              1 	(obj:0)
uf_150                                              1 	(obj:0)
uf_151                                              1 	(obj:0)
uf_152                                              1 	(obj:0)
uf_153                                              1 	(obj:0)
uf_154                                              1 	(obj:0)
uf_155                                              1 	(obj:0)
uf_156                                              1 	(obj:0)
uf_157                                              1 	(obj:0)
uf_158                                              1 	(obj:0)
uf_159                                              1 	(obj:0)
uf_160                                              1 	(obj:0)
uf_161                                              1 	(obj:0)
uf_162                                              1 	(obj:0)
uf_163                                              1 	(obj:0)
uf_164                                              1 	(obj:0)
uf_165                                              1 	(obj:0)
uf_166                                              1 	(obj:0)
uf_167                                              1 	(obj:0)
uf_168                                              1 	(obj:0)
uf_169                                              1 	(obj:0)
uf_170                                              1 	(obj:0)
uf_171                                              1 	(obj:0)
uf_172                                              1 	(obj:0)
uf_173                                              1 	(obj:0)
uf_174                                              1 	(obj:0)
uf_175                                              1 	(obj:0)
uf_176                                              1 	(obj:0)
uf_177                                              1 	(obj:0)
uf_178                                              1 	(obj:0)
uf_179                                              1 	(obj:0)
uf_180                                              1 	(obj:0)
uf_181                                              1 	(obj:0)
uf_182                                              1 	(obj:0)
uf_183                                              1 	(obj:0)
uf_184                                              1 	(obj:0)
uf_185                                              1 	(obj:0)
uf_186                                              1 	(obj:0)
uf_187                                              1 	(obj:0)
uf_188                                              1 	(obj:0)
uf_189                                              1 	(obj:0)
uf_190                                              1 	(obj:0)
uf_191                                              1 	(obj:0)
uf_192                                              1 	(obj:0)
uf_193                                              1 	(obj:0)
uf_194                                              1 	(obj:0)
uf_195                                              1 	(obj:0)
uf_196                                              1 	(obj:0)
uf_197                                              1 	(obj:0)
uf_198                                              1 	(obj:0)
uf_199                                              1 	(obj:0)
uf_200                                              1 	(obj:0)
uf_201                                              1 	(obj:0)
uf_202                                              1 	(obj:0)
uf_203                                              1 	(obj:0)
uf_204                                              1 	(obj:0)
uf_205                                              1 	(obj:0)
uf_206                                              1 	(obj:0)
uf_207                                              1 	(obj:0)
uf_208                                              1 	(obj:0)
uf_209                                              1 	(obj:0)
uf_210                                              1 	(obj:0)
uf_211                                              1 	(obj:0)
uf_212                                              1 	(obj:0)
uf_213                                              1 	(obj:0)
uf_214                                              1 	(obj:0)
uf_215                                              1 	(obj:0)
uf_216                                              1 	(obj:0)
uf_217                                              1 	(obj:0)
uf_218                                              1 	(obj:0)
uf_219                                              1 	(obj:0)
uf_220                                              1 	(obj:0)
uf_221                                              1 	(obj:0)
uf_222                                              1 	(obj:0)
uf_223                                              1 	(obj:0)
uf_224                                              1 	(obj:0)
uf_225                                              1 	(obj:0)
uf_226                                              1 	(obj:0)
uf_227                                              1 	(obj:0)
uf_228                                              1 	(obj:0)
uf_229                                              1 	(obj:0)
uf_230                                              1 	(obj:0)
uf_231                                              1 	(obj:0)
uf_232                                              1 	(obj:0)
uf_233                                              1 	(obj:0)
uf_234                                              1 	(obj:0)
uf_235                                              1 	(obj:0)
uf_236                                              1 	(obj:0)
uf_237                                              1 	(obj:0)
uf_238                                              1 	(obj:0)
uf_239                                              1 	(obj:0)
uf_240                                              1 	(obj:0)
uf_241                                              1 	(obj:0)
uf_242                                              1 	(obj:0)
uf_243                                              1 	(obj:0)
uf_244                                              1 	(obj:0)
uf_245                                              1 	(obj:0)
uf_246                                              1 	(obj:0)
uf_247                                              1 	(obj:0)
uf_248                                              1 	(obj:0)
uf_249                                              1 	(obj:0)
uf_250                                              1 	(obj:0)
uf_251                                              1 	(obj:0)
uf_252                                              1 	(obj:0)
uf_253                                              1 	(obj:0)
uf_254                                              1 	(obj:0)
uf_255                                              1 	(obj:0)
uf_256                                              1 	(obj:0)
uf_257                                              1 	(obj:0)
uf_258                                              1 	(obj:0)
uf_259                                              1 	(obj:0)
uf_260                                              1 	(obj:0)
uf_261                                              1 	(obj:0)
uf_262                                              1 	(obj:0)
uf_263                                              1 	(obj:0)
uf_264                                              1 	(obj:0)
uf_265                                              1 	(obj:0)
uf_266                                              1 	(obj:0)
uf_267                                              1 	(obj:0)
uf_268                                              1 	(obj:0)
uf_269                                              1 	(obj:0)
uf_270                                              1 	(obj:0)
uf_271                                              1 	(obj:0)
uf_272                                              1 	(obj:0)
uf_273                                              1 	(obj:0)
uf_274                                              1 	(obj:0)
uf_275                                              1 	(obj:0)
uf_276                                              1 	(obj:0)
uf_277                                              1 	(obj:0)
uf_278                                              1 	(obj:0)
uf_279                                              1 	(obj:0)
uf_280                                              1 	(obj:0)
uf_441                                              1 	(obj:0)
uf_442                                              1 	(obj:0)
uf_443                                              1 	(obj:0)
uf_444                                              1 	(obj:0)
uf_445                                              1 	(obj:0)
uf_446                                              1 	(obj:0)
uf_447                                              1 	(obj:0)
uf_448                                              1 	(obj:0)
uf_449                                              1 	(obj:0)
uf_450                                              1 	(obj:0)
uf_451                                              1 	(obj:0)
uf_452                                              1 	(obj:0)
uf_453                                              1 	(obj:0)
uf_454                                              1 	(obj:0)
uf_455                                              1 	(obj:0)
uf_456                                              1 	(obj:0)
uf_457                                              1 	(obj:0)
uf_458                                              1 	(obj:0)
uf_459                                              1 	(obj:0)
uf_460                                              1 	(obj:0)
uf_461                                              1 	(obj:0)
uf_462                                              1 	(obj:0)
uf_463                                              1 	(obj:0)
uf_464                                              1 	(obj:0)
uf_465                                              1 	(obj:0)
uf_466                                              1 	(obj:0)
uf_467                                              1 	(obj:0)
uf_468                                              1 	(obj:0)
uf_469                                              1 	(obj:0)
uf_470                                              1 	(obj:0)
ud_5                                               20 	(obj:1000)
ud_6                                              250 	(obj:1000)
ud_7                                              250 	(obj:1000)
ud_8                                              250 	(obj:1000)
ud_9                                               75 	(obj:1000)
ud_10                                              20 	(obj:1000)
ud_18                                              20 	(obj:1000)
ud_19                                             250 	(obj:1000)
ud_20                                             250 	(obj:1000)
ud_21                                             250 	(obj:1000)
ud_22                                              75 	(obj:1000)
ud_23                                              20 	(obj:1000)
ud_31                                              20 	(obj:1000)
ud_32                                             250 	(obj:1000)
ud_33                                             250 	(obj:1000)
ud_34                                             250 	(obj:1000)
ud_35                                              75 	(obj:1000)
ud_36                                              20 	(obj:1000)
ud_44                                              20 	(obj:1000)
ud_45                                             250 	(obj:1000)
ud_46                                             250 	(obj:1000)
ud_47                                             250 	(obj:1000)
ud_48                                              75 	(obj:1000)
ud_49                                              20 	(obj:1000)
